169
0 50 87 2 63 81 166 18 31 12 
138 73 117 129 97 106 66 25 131 162 
95 36 54 8 37 41 46 111 38 155 
93 141 119 51 16 57 109 96 165 60 
72 163 27 67 113 3 90 143 82 147 
4 94 99 130 48 9 127 158 33 65 
23 149 17 11 161 153 58 126 157 92 
115 64 168 104 59 107 7 136 56 29 
123 91 6 42 76 132 134 24 26 167 
77 145 114 135 100 98 102 14 43 19 
62 121 1 40 128 20 148 101 150 10 
164 120 21 142 122 159 22 15 154 71 
70 88 44 86 61 80 160 13 74 137 
39 110 83 35 118 79 47 53 52 133 
89 146 105 144 156 69 32 45 152 55 
139 28 85 112 75 84 34 108 49 5 
78 124 140 30 125 103 68 151 116 
